set of int: V = 1..3;
set of int: A = 1..3;

set of int: NODES = 1..3;
set of int: USERS = 1..3;


% Max capacity per Node
capacity = [1, 2, 6];

% Delay on links between nodes
delay = array2d(NODES, NODES, [
  0, 2, 3,
  2, 0, 4, 
  3, 4, 0
]);


% Transmission cost
transmission_cost = array2d(NODES, NODES, [
  0, 5, 8,
  5, 0, 2,
  8, 2, 0
]);

Request_Array = [1,1,1];

Max_Delay_For_App = 12;
